SDVRP instances/custom_instances/p01_26_splitx10_0.vrp
NAME:p01_26_splitx10_
BEST_KNOWN: 0
COMMENT: 0
DIMENSION: 230
CAPACITY: 1600
EDGE_WEIGHT_FORMAT: FUNCTION
EDGE_WEIGHT_TYPE: EXACT_2D
NODE_COORD_SECTION
1 0.00000 0.00000
2 -2 26
3 -2 26
4 28 -34
5 28 -34
6 28 -34
7 28 -34
8 28 -34
9 18 11
10 18 11
11 18 11
12 -48 7
13 -48 7
14 -48 7
15 -48 7
16 -39 37
17 -39 37
18 -39 37
19 -24 -34
20 -24 -34
21 -24 -34
22 -24 -34
23 -24 -34
24 -24 -34
25 -9 -5
26 -9 -5
27 -9 -5
28 -9 -5
29 12 -37
30 12 -37
31 12 -37
32 12 -37
33 12 -37
34 12 -37
35 12 -37
36 12 -37
37 28 -42
38 -31 -32
39 -31 -32
40 -31 -32
41 1 22
42 1 22
43 1 22
44 1 22
45 1 22
46 -16 6
47 -16 6
48 -16 6
49 -16 6
50 -16 6
51 29 -23
52 29 -23
53 29 -23
54 29 -23
55 -10 18
56 -10 18
57 -10 18
58 39 1
59 39 1
60 39 1
61 -5 -46
62 -5 -46
63 -12 18
64 -1 -38
65 -1 -38
66 -1 -38
67 -1 -38
68 -1 -38
69 -1 -38
70 -1 -38
71 40 -43
72 40 -43
73 40 -43
74 9 21
75 9 21
76 9 21
77 9 21
78 9 21
79 9 21
80 -45 -35
81 -45 -35
82 -45 -35
83 -45 -35
84 -11 -1
85 -11 -1
86 -11 -1
87 -11 -1
88 -35 46
89 -35 46
90 -35 46
91 -35 46
92 -35 46
93 -35 46
94 -35 46
95 -35 46
96 -42 -36
97 -42 -36
98 -42 -36
99 -42 -36
100 26 38
101 26 38
102 26 38
103 9 41
104 9 41
105 9 41
106 9 41
107 9 41
108 9 41
109 9 41
110 -29 18
111 -29 18
112 -29 18
113 -29 18
114 -29 18
115 1 -47
116 1 -47
117 1 -47
118 1 -47
119 1 -47
120 1 -47
121 1 -47
122 36 -47
123 36 -47
124 36 -47
125 36 -47
126 36 -47
127 -21 -36
128 -21 -36
129 -21 -36
130 -21 -36
131 -21 -36
132 -21 -36
133 -19 18
134 -19 18
135 28 -13
136 28 -13
137 28 -13
138 48 15
139 48 15
140 48 15
141 48 15
142 48 15
143 48 15
144 10 -12
145 10 -12
146 10 -12
147 10 -12
148 10 -12
149 10 -12
150 24 -11
151 24 -11
152 24 -11
153 24 -11
154 24 -11
155 -33 47
156 -33 47
157 -33 47
158 -33 47
159 -33 47
160 -33 47
161 7 -21
162 7 -21
163 7 -21
164 7 -21
165 43 -37
166 43 -37
167 43 -37
168 43 -37
169 43 -37
170 43 -37
171 1 2
172 1 2
173 1 2
174 1 2
175 1 2
176 1 2
177 24 5
178 24 5
179 24 5
180 24 5
181 -4 33
182 -4 33
183 -4 33
184 -4 33
185 -4 33
186 -30 10
187 -30 10
188 -30 10
189 -30 10
190 -16 -40
191 -16 -40
192 -16 -40
193 37 -47
194 37 -47
195 37 -47
196 37 -47
197 37 -47
198 37 -47
199 18 -38
200 18 -38
201 18 -38
202 18 -38
203 18 -38
204 18 -38
205 -15 -50
206 -15 -50
207 -15 -50
208 -26 34
209 -26 34
210 -26 34
211 -26 34
212 -27 25
213 -27 25
214 -27 25
215 -27 25
216 -27 25
217 -27 25
218 -27 25
219 -27 25
220 45 -31
221 45 -31
222 45 -31
223 45 -31
224 45 -31
225 45 -31
226 37 -24
227 37 -24
228 37 -24
229 37 -24
230 37 -24
DEMAND_SECTION
1 0
2 320
3 160
4 320
5 160
6 16
7 16
8 8
9 320
10 16
11 14
12 320
13 16
14 16
15 8
16 160
17 80
18 10
19 320
20 80
21 16
22 16
23 16
24 12
25 320
26 320
27 16
28 4
29 320
30 320
31 80
32 16
33 16
34 16
35 16
36 6
37 320
38 320
39 160
40 10
41 160
42 16
43 16
44 16
45 2
46 160
47 16
48 16
49 16
50 2
51 320
52 160
53 80
54 10
55 160
56 80
57 10
58 320
59 16
60 14
61 320
62 80
63 320
64 320
65 160
66 80
67 16
68 16
69 16
70 2
71 320
72 16
73 4
74 320
75 160
76 80
77 16
78 16
79 8
80 320
81 160
82 16
83 4
84 160
85 80
86 16
87 4
88 320
89 320
90 80
91 16
92 16
93 16
94 16
95 6
96 160
97 16
98 16
99 8
100 320
101 16
102 4
103 320
104 160
105 80
106 16
107 16
108 16
109 2
110 320
111 320
112 80
113 16
114 4
115 320
116 320
117 80
118 16
119 16
120 16
121 2
122 320
123 160
124 80
125 16
126 14
127 320
128 160
129 16
130 16
131 16
132 2
133 320
134 320
135 320
136 320
137 160
138 320
139 320
140 80
141 16
142 16
143 8
144 320
145 80
146 16
147 16
148 16
149 2
150 320
151 16
152 16
153 16
154 12
155 320
156 320
157 80
158 16
159 16
160 8
161 320
162 80
163 16
164 14
165 160
166 80
167 16
168 16
169 16
170 2
171 160
172 80
173 16
174 16
175 16
176 2
177 160
178 80
179 16
180 4
181 320
182 320
183 80
184 16
185 14
186 160
187 16
188 16
189 8
190 320
191 320
192 80
193 320
194 160
195 16
196 16
197 16
198 12
199 320
200 320
201 16
202 16
203 16
204 2
205 320
206 160
207 10
208 160
209 80
210 16
211 14
212 320
213 160
214 80
215 16
216 16
217 16
218 16
219 6
220 160
221 80
222 16
223 16
224 16
225 12
226 320
227 80
228 16
229 16
230 8
DEPOT_SECTION
1
-1
EOF