SDVRP instances/custom_instances/p01_26_splitx10_0.sol
229 -6 5 7 3 4 36 198 201 202 199 200 203 -10 8 9 139 141 142 140 137 138 59 58 57 -14 13 12 11 80 79 82 81 97 96 95 98 37 38 39 20 22 -21 19 23 18 131 130 129 127 126 128 189 190 -26 27 24 25 83 86 84 85 46 49 45 47 48 -35 33 34 32 31 29 28 30 114 120 116 117 119 118 115 -44 42 41 40 43 2 1 181 182 184 183 180 54 -51 50 52 53 168 169 164 167 165 166 224 220 222 221 219 223 228 229 226 225 227 -55 56 62 207 208 17 15 16 212 215 218 217 213 216 214 211 -67 69 68 66 64 63 65 61 60 206 204 205 191 -71 70 72 193 196 195 194 197 192 124 122 125 123 121 -73 77 74 76 75 78 100 99 101 104 107 102 103 105 108 106 -132 133 112 111 110 109 113 185 188 187 186 -145 147 146 148 143 144 162 160 161 163 -149 153 150 152 151 134 135 136 177 178 176 179 -157 154 156 155 158 159 88 93 91 92 87 89 90 94 210 209 -170 174 172 175 171 173 0 





OBJ=
1561.862
BEST_KNOWN=
0.000